SYSTEM =  Si-FCC
IBRION=5
LWAVE  = .FALSE.
LCHARG = .FALSE.
ISMEAR =    1
SIGMA  = 0.1
