Cu3 O6
1.0
2.944668 0.000000 0.000000
-1.472334 2.550158 0.000000
0.000000 0.000000 13.685036
Cu O
3 6
direct
0.000000 0.000000 0.000000 Cu
0.666667 0.333333 0.333333 Cu
0.333333 0.666667 0.666667 Cu
0.666667 0.333333 0.068201 O
0.000000 0.000000 0.265132 O
0.333333 0.666667 0.401535 O
0.666667 0.333333 0.598465 O
0.000000 0.000000 0.734868 O
0.333333 0.666667 0.931799 O
