Si
5.0
0.500000000 0.500000000 0.000000000
0.000000000 0.500000000 0.500000000
0.500000000 0.000000000 0.500000000
Si
2
direct
0.000000000 0.000000000 0.000000000 Si
0.250000000 0.250000000 0.250000000 Si
