Generated by cif2cell 1.2.10 from COD reference: 9008468.  :  Wyckoff, R. W. G., Crystal Structures 1, 7-83 (1963).
3.614960
0.000000000000000   0.500000000000000   0.500000000000000
0.500000000000000   0.000000000000000   0.500000000000000
0.500000000000000   0.500000000000000   0.000000000000000
Cu
1
Direct
0.000000000000000   0.000000000000000   0.000000000000000