&CONTROL
    calculation = 'vc-relax'
    restart_mode = 'restart'
    outdir = '$OUTPUT_DIR/'
    prefix = '__prefix__'
    pseudo_dir = '$PSEUDO_DIR'
/
&SYSTEM
    ibrav = 2
    nat = 2
    ntyp = 1
    ecutwfc = 40
    ecutrho = 200
    occupations = 'smearing'
    degauss = 0.005
    celldm(1) = 9.448580823160363
/
&electrons
    mixing_beta = 0.7
    conv_thr = 1.0d-8
/   
&IONS
/
&CELL
/
ATOMIC_SPECIES
Si 28.0855 si_pbe_gbrv_1.0.upf
ATOMIC_POSITIONS crystal
Si 0 0 0
Si 0.25 0.25 0.25
K_POINTS automatic
{{PARAMETER | default('1')}} {{PARAMETER | default('1')}} {{PARAMETER | default('1')}} 0 0 0
