&CONTROL
    calculation = 'vc-relax',
    restart_mode = 'restart',
    outdir = './',
    pseudo_dir = './',
    wf_collect=.true.
/
&SYSTEM
    ibrav = 2
    nat = 2
    ntyp = 1
    ecutwfc = 40
    ecutrho = 200
    occupations = 'smearing'
    degauss = 0.005
    celldm(1) = 9.448580823160363
/
&electrons
    mixing_beta = 0.7
    conv_thr = 1.0d-8
/   
&IONS
/
&CELL
/
ATOMIC_SPECIES
Si 28.0855 element.upf
ATOMIC_POSITIONS crystal
Si 0 0 0
Si 0.25 0.25 0.25
K_POINTS automatic
{{PARAMETER | default('1')}} {{PARAMETER | default('1')}} {{PARAMETER | default('1')}} 0 0 0
